# 1oh0_19nt_crystal_distance_cutoff8_xtb
%maxcore 2000
%pal nprocs 32 end
! XTB2 opt
%geom Constraints
 { C 47 C }
 { C 62 C }
 { C 83 C }
 { C 100 C }
 { C 119 C }
 { C 135 C }
 { C 145 C }
 { C 150 C }
 { C 167 C }
 { C 184 C }
 { C 203 C }
 { C 219 C }
 { C 234 C }
 { C 254 C }
 { C 260 C }
 { C 278 C }
 { C 298 C }
 { C 319 C }
 { C 343 C }
 { C 360 C }
 { C 367 C }
 { C 386 C }
 { C 393 C }
 { C 400 C }
 { C 407 C }
 { C 429 C }
 { C 445 C }
 { C 469 C }
 { C 479 C }
 { C 488 C }
 { C 503 C }
 { C 523 C }
 { C 547 C }
 { C 563 C }
 { C 578 C }
 { C 595 C }
 { C 611 C }
 { C 633 C }
 { C 644 C }
 { C 654 C }
 { C 673 C }
 { C 685 C }
 { C 701 C }
 { C 720 C }
 { C 733 C }
 { C 749 C }
 { C 764 C }
 { C 781 C }
 { C 798 C }
 { C 815 C }
 { C 825 C }
 { C 846 C }
 { C 870 C }
 { C 881 C }
 { C 894 C }
 { C 908 C }
 end
end
* xyz -2 1
 C  43.84900000  42.79100000  31.44300000
 O  43.55300000  41.82500000  32.07900000
 C  43.61000000  44.15300000  31.96500000
 C  43.83200000  45.25800000  31.25800000
 C  44.45600000  45.20900000  29.87000000
 C  45.30900000  43.94200000  29.75600000
 C  44.47300000  42.70500000  30.06700000
 C  43.11500000  46.53500000  31.62300000
 C  43.88800000  47.78500000  31.20400000
 C  44.30000000  47.72800000  29.73400000
 C  45.24000000  46.51000000  29.53800000
 C  44.97900000  49.00900000  29.24700000
 C  45.51500000  48.95000000  27.79900000
 C  46.54000000  47.81900000  27.70700000
 C  45.92600000  46.47900000  28.15300000
 C  44.20700000  50.33900000  29.30300000
 C  44.96900000  51.25800000  28.31400000
 C  46.08100000  50.37600000  27.70000000
 C  44.42500000  48.74900000  26.73100000
 O  46.42400000  50.73800000  26.38900000
 H  43.23200000  44.25800000  32.98200000
 H  43.67000000  45.15900000  29.11600000
 H  46.12700000  44.00300000  30.47400000
 H  45.70300000  43.86500000  28.74300000
 H  43.67200000  42.63800000  29.33100000
 H  45.11300000  41.82300000  30.02200000
 H  43.01400000  46.55800000  32.70800000
 H  42.14300000  46.54300000  31.13000000
 H  44.79300000  47.84300000  31.80900000
 H  43.25900000  48.66000000  31.36200000
 H  43.39500000  47.62400000  29.13400000
 H  46.07400000  46.59900000  30.23400000
 H  45.76100000  49.02400000  30.00800000
 H  47.37600000  48.05400000  28.36500000
 H  46.88000000  47.72900000  26.67500000
 H  45.14500000  46.24400000  27.43000000
 H  46.72100000  45.73400000  28.18400000
 H  44.16000000  50.75500000  30.30900000
 H  43.17400000  50.20100000  28.98600000
 H  45.38100000  52.13400000  28.81400000
 H  44.29800000  51.62100000  27.53600000
 H  47.02600000  50.48800000  28.23000000
 H  43.44800000  48.95800000  27.16600000
 H  44.60300000  49.42800000  25.89700000
 H  44.45000000  47.72000000  26.37300000
 H  47.20800000  50.25500000  26.11800000
 H  45.55400000  32.07800000  35.26500000
 C  45.64800000  33.16400000  35.28300000
 H  44.96100000  33.61400000  34.56600000
 C  45.30600000  33.68700000  36.68400000
 H  45.92000000  33.16200000  37.41600000
 H  45.52500000  34.75400000  36.72500000
 C  43.82600000  33.45800000  37.00200000
 H  43.27400000  33.88600000  36.16500000
 H  43.69000000  32.37700000  37.01200000
 S  43.19800000  34.14500000  38.53500000
 C  43.27800000  35.89700000  38.17800000
 H  42.65400000  36.12100000  37.31200000
 H  42.91900000  36.46100000  39.03900000
 H  44.30900000  36.17800000  37.96500000
 H  46.63000000  33.48700000  34.93900000
 H  46.86400000  33.62100000  30.90900000
 C  46.30900000  34.45100000  30.47100000
 H  45.90900000  34.16600000  29.49800000
 C  45.14300000  34.82800000  31.38700000
 H  44.39900000  34.04000000  31.27500000
 H  45.51400000  34.83400000  32.41200000
 C  44.51300000  36.16200000  31.07300000
 C  43.52200000  36.28900000  30.10100000
 H  43.18500000  35.40100000  29.56700000
 C  42.96300000  37.53300000  29.80800000
 H  42.18700000  37.62800000  29.04900000
 C  43.40300000  38.65600000  30.49500000
 O  42.86900000  39.88800000  30.22100000
 H  42.19700000  39.86200000  29.53600000
 C  44.38300000  38.54700000  31.46000000
 H  44.72900000  39.42900000  31.99900000
 C  44.92700000  37.30800000  31.74200000
 H  45.70000000  37.21300000  32.50500000
 C  47.22900000  35.65600000  30.25400000
 O  47.22700000  36.26700000  29.18500000
 N  48.02500000  35.99300000  31.26600000
 H  47.98000000  35.49800000  32.14500000
 C  48.93800000  37.12600000  31.15600000
 H  48.40100000  38.02200000  30.84600000
 C  49.65800000  37.39500000  32.50200000
 H  50.08600000  36.46300000  32.87000000
 C  50.76800000  38.42400000  32.31200000
 H  50.34000000  39.35700000  31.94500000
 H  51.26500000  38.60300000  33.26500000
 H  51.49300000  38.04800000  31.59000000
 C  48.64400000  37.87600000  33.54900000
 H  47.89100000  37.09300000  33.64500000
 H  49.18400000  37.97700000  34.49000000
 C  47.96300000  39.19600000  33.21000000
 H  47.42200000  39.09500000  32.26900000
 H  47.26400000  39.45900000  34.00400000
 H  48.71500000  39.97900000  33.11500000
 H  49.66900000  36.96100000  30.36500000
 H  49.35800000  35.25200000  27.03000000
 C  48.83900000  35.38700000  26.08100000
 H  49.44700000  34.99000000  25.26800000
 C  47.49900000  34.64900000  26.09400000
 H  46.96100000  35.05100000  26.95300000
 H  46.96500000  34.90400000  25.17900000
 C  47.59600000  33.12500000  26.22000000
 H  48.17500000  32.87000000  27.10800000
 C  46.20200000  32.53700000  26.33900000
 H  45.62300000  32.79200000  25.45100000
 H  46.27100000  31.45300000  26.42900000
 H  45.71000000  32.94400000  27.22200000
 C  48.32300000  32.54400000  25.01200000
 H  49.32800000  32.96300000  24.95600000
 H  48.38600000  31.46000000  25.11200000
 H  47.77500000  32.79300000  24.10300000
 C  48.62200000  36.86700000  25.78600000
 O  48.73500000  37.29800000  24.63700000
 N  48.30500000  37.64500000  26.81600000
 H  48.19100000  37.26200000  27.74300000
 C  48.10600000  39.07700000  26.63100000
 H  47.35600000  39.26500000  25.86300000
 C  47.64900000  39.75900000  27.94600000
 H  48.31800000  39.46000000  28.75300000
 C  47.68100000  41.27400000  27.79500000
 H  47.01200000  41.57300000  26.98800000
 H  47.35800000  41.73900000  28.72600000
 H  48.69600000  41.59500000  27.56200000
 C  46.24500000  39.29700000  28.30400000
 H  46.24100000  38.21500000  28.43900000
 H  45.92800000  39.77900000  29.22900000
 H  45.55800000  39.56500000  27.50100000
 C  49.41900000  39.70600000  26.17500000
 O  49.44000000  40.53000000  25.26200000
 N  50.51400000  39.29600000  26.80500000
 H  50.43300000  38.63500000  27.56400000
 C  51.83600000  39.82500000  26.48600000
 H  51.85500000  40.90400000  26.63700000
 C  52.88400000  39.18500000  27.40000000
 H  52.56800000  39.33700000  28.43200000
 H  52.91100000  38.11700000  27.18200000
 C  54.26500000  39.77500000  27.20300000
 O  54.41900000  41.00200000  27.37700000
 O  55.19600000  39.01100000  26.87500000
 H  52.12500000  39.68900000  25.44400000
 H  49.59700000  39.21400000  22.41800000
 C  48.73900000  39.50500000  21.81200000
 H  48.05400000  40.02700000  22.48000000
 H  49.11500000  40.20100000  21.06200000
 H  48.20200000  38.70000000  21.31100000
 H  44.73300000  37.12900000  20.76800000
 C  43.66900000  37.30900000  20.91900000
 H  43.49400000  37.67800000  21.92900000
 C  43.12400000  38.33200000  19.89500000
 H  43.20800000  37.91600000  18.89100000
 C  41.66400000  38.64000000  20.19500000
 H  41.57900000  39.05700000  21.19900000
 H  41.28800000  39.36100000  19.46900000
 H  41.07800000  37.72300000  20.13200000
 C  43.95800000  39.61500000  19.94200000
 H  44.98200000  39.34100000  19.68600000
 H  43.56000000  40.28400000  19.17900000
 C  43.94400000  40.31600000  21.28300000
 H  44.34200000  39.64800000  22.04700000
 H  44.55900000  41.21500000  21.23000000
 H  42.92100000  40.59100000  21.53900000
 H  43.06300000  36.40500000  20.85000000
 H  43.04400000  34.15300000  24.22600000
 C  42.59500000  34.65900000  25.08100000
 H  42.96600000  34.24500000  26.01900000
 C  42.87600000  36.17600000  25.04200000
 H  42.66400000  36.55300000  24.04100000
 C  41.99500000  36.90300000  26.05700000
 H  42.20700000  36.52700000  27.05800000
 H  42.20300000  37.97200000  26.01900000
 H  40.94600000  36.72900000  25.81900000
 C  44.36000000  36.43000000  25.30900000
 H  44.55000000  36.16500000  26.34900000
 H  44.92300000  35.76300000  24.65600000
 C  44.79400000  37.85700000  25.06600000
 H  44.23200000  38.52500000  25.71900000
 H  45.85900000  37.95500000  25.27800000
 H  44.60500000  38.12300000  24.02600000
 H  41.51700000  34.50000000  25.07500000
 H  37.58500000  32.32000000  27.92200000
 C  36.63400000  32.65400000  28.33600000
 H  36.70400000  32.70900000  29.42200000
 C  36.26800000  34.04300000  27.79800000
 H  36.50400000  34.03900000  26.73400000
 H  35.19300000  34.16500000  27.93100000
 C  36.98800000  35.18300000  28.46700000
 C  38.18200000  35.68700000  27.95200000
 H  38.59600000  35.24700000  27.04500000
 C  38.84400000  36.73900000  28.58100000
 H  39.77700000  37.13000000  28.17500000
 C  38.30300000  37.29100000  29.73700000
 O  38.92800000  38.33000000  30.38200000
 H  39.74000000  38.60500000  29.95000000
 C  37.12200000  36.80200000  30.26200000
 H  36.70100000  37.23300000  31.17100000
 C  36.47300000  35.75800000  29.62600000
 H  35.53900000  35.36900000  30.03100000
 H  35.81000000  31.98200000  28.09600000
 H  33.36300000  40.77800000  31.13300000
 C  34.28100000  41.31900000  31.36400000
 H  34.82500000  40.82400000  32.16800000
 C  35.21300000  41.43200000  30.13200000
 H  34.63000000  41.76100000  29.27200000
 C  36.32500000  42.43600000  30.40600000
 H  36.90800000  42.10700000  31.26600000
 H  36.97400000  42.50700000  29.53300000
 H  35.89000000  43.41300000  30.61500000
 C  35.80300000  40.07200000  29.79200000
 H  34.99800000  39.37200000  29.56700000
 H  36.45600000  40.16500000  28.92400000
 H  36.37800000  39.70200000  30.64100000
 C  33.89100000  42.72800000  31.79700000
 O  33.06600000  43.37800000  31.15100000
 N  34.46700000  43.17900000  32.90700000
 H  35.10000000  42.56900000  33.40400000
 C  34.25100000  44.52900000  33.43000000
 H  33.60000000  45.08600000  32.75600000
 C  33.59600000  44.47200000  34.80100000
 H  34.14600000  43.74800000  35.40200000
 H  33.68500000  45.46000000  35.25200000
 C  32.13800000  44.07400000  34.74300000
 H  31.56000000  44.92100000  34.37300000
 H  32.05100000  43.24300000  34.04300000
 C  31.60800000  43.65400000  36.09000000
 O  31.74100000  42.46200000  36.43500000
 O  31.06900000  44.52100000  36.81000000
 C  35.66000000  45.08400000  33.52100000
 O  36.43800000  44.69700000  34.39200000
 N  35.98600000  45.99900000  32.61600000
 H  35.29700000  46.34300000  31.96200000
 C  37.33900000  46.52400000  32.53100000
 H  37.82700000  46.53800000  33.50500000
 C  38.11800000  45.58200000  31.60600000
 H  38.09500000  44.59400000  32.06600000
 H  37.59500000  45.54900000  30.65000000
 C  39.55300000  45.99800000  31.38000000
 O  39.95800000  47.09800000  31.80000000
 O  40.28600000  45.19700000  30.75500000
 C  37.33300000  47.94300000  31.97300000
 O  37.12100000  48.13800000  30.78000000
 N  37.58200000  48.95300000  32.82600000
 C  37.65000000  50.36200000  32.39000000
 H  36.78200000  50.60100000  31.77500000
 H  38.56000000  50.52700000  31.81300000
 C  37.65600000  51.11600000  33.70800000
 H  36.64300000  51.26200000  34.08300000
 H  38.14800000  52.08300000  33.60600000
 C  38.44500000  50.20600000  34.60100000
 H  38.24700000  50.44300000  35.64600000
 H  39.52100000  50.20600000  34.42700000
 C  37.86200000  48.83800000  34.26000000
 H  38.57900000  48.02900000  34.40300000
 C  36.60800000  48.55000000  35.06600000
 O  35.50100000  48.92500000  34.67200000
 N  36.78800000  47.88000000  36.20100000
 H  37.70900000  47.57300000  36.47900000
 C  35.67100000  47.58600000  37.07900000
 H  34.97700000  46.91000000  36.58000000
 C  36.16100000  46.92100000  38.36500000
 H  36.67200000  45.99300000  38.11000000
 H  36.84100000  47.57000000  38.91700000
 C  35.05800000  46.55700000  39.30600000
 C  34.16300000  45.54100000  38.98900000
 H  34.29100000  44.99200000  38.05600000
 C  33.11300000  45.22100000  39.84700000
 H  32.41900000  44.42100000  39.58900000
 C  32.95200000  45.92500000  41.03600000
 H  32.13100000  45.68100000  41.71000000
 C  33.84200000  46.94200000  41.36300000
 H  33.72200000  47.49600000  42.29400000
 C  34.88900000  47.25200000  40.49800000
 H  35.58800000  48.04800000  40.75200000
 H  35.21700000  48.55200000  37.30000000
 H  36.94500000  43.75800000  22.36700000
 C  37.40400000  44.34200000  23.16500000
 H  37.21600000  45.40500000  23.01200000
 C  36.80200000  43.92700000  24.51100000
 H  35.72500000  44.09500000  24.51000000
 H  37.00500000  42.87200000  24.69300000
 C  37.35300000  44.67900000  25.68700000
 C  37.06800000  46.02900000  25.86500000
 H  36.44300000  46.54200000  25.13400000
 C  37.57200000  46.72600000  26.96300000
 H  37.34300000  47.78400000  27.09300000
 C  38.36800000  46.06900000  27.89200000
 H  38.76300000  46.60900000  28.75200000
 C  38.66000000  44.72200000  27.72400000
 H  39.28500000  44.20200000  28.45000000
 C  38.15200000  44.03400000  26.62300000
 H  38.38000000  42.97700000  26.48800000
 C  38.91900000  44.15100000  23.18700000
 O  39.67600000  45.12400000  23.21400000
 N  39.36400000  42.90000000  23.17400000
 H  38.72700000  42.11800000  23.21400000
 C  40.79300000  42.62700000  23.19000000
 H  41.26900000  43.21600000  23.97400000
 C  41.06200000  41.14400000  23.46000000
 H  40.30800000  40.59000000  22.90200000
 H  42.05200000  40.88900000  23.08300000
 C  40.97200000  40.78100000  24.92700000
 C  39.79800000  40.25800000  25.46800000
 H  38.94600000  40.08700000  24.81000000
 C  39.70200000  39.95400000  26.82800000
 H  38.77700000  39.54700000  27.23800000
 C  40.78800000  40.17700000  27.65800000
 O  40.67900000  39.87000000  28.99500000
 H  39.81900000  39.51500000  29.22900000
 C  41.96700000  40.69700000  27.14500000
 H  42.82300000  40.87400000  27.79700000
 C  42.05300000  40.99400000  25.78300000
 H  42.97700000  41.40000000  25.37100000
 C  41.47900000  43.06400000  21.90000000
 O  42.63700000  43.47700000  21.92500000
 N  40.77400000  42.98300000  20.77800000
 H  39.84000000  42.59900000  20.77000000
 C  41.35900000  43.40400000  19.51000000
 H  42.30000000  42.88000000  19.34300000
 C  40.40600000  43.08000000  18.35400000
 H  39.42200000  43.46900000  18.61500000
 H  40.77500000  43.59300000  17.46600000
 C  40.30300000  41.58800000  18.07200000
 H  41.23300000  41.27000000  17.60000000
 H  40.18600000  41.07300000  19.02500000
 C  39.13200000  41.24700000  17.16500000
 H  38.21500000  41.65200000  17.59200000
 H  39.29800000  41.68500000  16.18100000
 N  38.98000000  39.80100000  17.01400000
 H  39.72500000  39.22100000  17.37200000
 C  37.93900000  39.21100000  16.43800000
 N  36.94600000  39.94200000  15.95100000
 H  36.98400000  40.94900000  16.01900000
 H  36.15600000  39.48900000  15.51400000
 N  37.88700000  37.88900000  16.35300000
 H  38.64200000  37.33200000  16.72800000
 H  37.09300000  37.44500000  15.91400000
 C  41.67100000  44.90000000  19.55000000
 O  42.71500000  45.33800000  19.06900000
 N  40.77000000  45.68000000  20.14000000
 H  39.91600000  45.28400000  20.50600000
 C  40.96500000  47.12200000  20.24500000
 H  41.29300000  47.52400000  19.28600000
 C  39.65400000  47.80500000  20.63800000
 H  39.30700000  47.32500000  21.55300000
 H  39.88900000  48.85000000  20.84300000
 C  38.56600000  47.72900000  19.58400000
 H  38.89400000  48.26700000  18.69500000
 H  38.39500000  46.68200000  19.33200000
 C  37.25900000  48.33200000  20.06100000
 O  36.69200000  49.21100000  19.41000000
 N  36.77100000  47.85800000  21.20200000
 H  35.90300000  48.22300000  21.56700000
 H  37.27000000  47.13400000  21.69900000
 C  42.04200000  47.47800000  21.26800000
 O  42.75800000  48.46500000  21.10700000
 N  42.15600000  46.67100000  22.31800000
 H  41.56500000  45.85900000  22.42800000
 C  43.14600000  46.94500000  23.34200000
 H  43.15900000  48.02500000  23.49000000
 H  42.80200000  46.45800000  24.25500000
 C  44.55300000  46.47200000  23.03100000
 O  45.52500000  47.12800000  23.41100000
 N  44.67000000  45.34800000  22.33100000
 H  43.84400000  44.84400000  22.04100000
 C  45.97500000  44.78300000  22.00300000
 H  46.76800000  45.36700000  22.46900000
 C  46.05400000  43.34600000  22.52500000
 H  45.40000000  42.78200000  21.86000000
 H  47.08300000  43.01000000  22.39400000
 C  45.62400000  43.11800000  23.97800000
 H  44.60200000  43.47200000  24.11500000
 C  45.69300000  41.63500000  24.29800000
 H  46.71500000  41.28000000  24.16100000
 H  45.38700000  41.47100000  25.33100000
 H  45.02700000  41.08800000  23.63100000
 C  46.51600000  43.91500000  24.91300000
 H  46.43500000  44.97600000  24.67700000
 H  46.20400000  43.74800000  25.94400000
 H  47.55000000  43.59400000  24.79000000
 C  46.29000000  44.78800000  20.51000000
 O  47.40400000  44.44900000  20.10800000
 N  45.31000000  45.17000000  19.69800000
 H  44.41600000  45.45000000  20.07500000
 C  45.48900000  45.19800000  18.25400000
 H  45.38500000  44.17000000  17.90600000
 H  44.67600000  45.80100000  17.85000000
 C  46.81100000  45.75600000  17.75900000
 O  47.41500000  45.20000000  16.84100000
 N  47.25700000  46.85600000  18.35700000
 H  46.73600000  47.29000000  19.10600000
 C  48.51000000  47.46500000  17.94700000
 H  48.36900000  47.88800000  16.95200000
 H  48.74200000  48.26400000  18.65100000
 C  49.67000000  46.48900000  17.90800000
 O  50.26100000  46.25700000  16.85200000
 N  50.00000000  45.91600000  19.06000000
 H  49.49700000  46.12700000  19.91000000
 C  51.09700000  44.96800000  19.12700000
 H  50.72300000  44.03300000  19.54500000
 H  51.46600000  44.79200000  18.11600000
 C  52.23900000  45.47100000  19.98800000
 O  53.23300000  44.77100000  20.18500000
 N  52.09900000  46.68600000  20.50700000
 H  51.28400000  47.24000000  20.28500000
 C  53.13000000  47.28000000  21.34800000
 H  54.06400000  46.72800000  21.23700000
 C  53.37100000  48.73600000  20.94100000
 H  52.39400000  49.21700000  20.89600000
 H  53.96300000  49.19200000  21.73500000
 C  54.08900000  48.91500000  19.60300000
 H  53.64000000  48.22700000  18.88700000
 H  53.92800000  49.94000000  19.27000000
 C  55.59200000  48.64100000  19.70100000
 H  56.05000000  48.95500000  18.76300000
 H  55.98800000  49.24300000  20.51900000
 C  55.90800000  47.17200000  19.95300000
 H  55.40300000  46.86700000  20.87000000
 H  55.52100000  46.59200000  19.11600000
 N  57.37200000  46.93100000  20.08900000
 H  57.73100000  47.46800000  20.86500000
 H  57.53700000  45.94800000  20.25400000
 H  57.84000000  47.21300000  19.23900000
 C  52.79400000  47.21000000  22.83200000
 O  53.41100000  47.89500000  23.64700000
 N  51.81500000  46.38200000  23.18400000
 H  51.31600000  45.84900000  22.48600000
 C  51.42500000  46.22900000  24.57900000
 H  51.71200000  47.10900000  25.15400000
 C  49.89900000  46.01700000  24.72800000
 H  49.59500000  45.16300000  24.12300000
 C  49.54700000  45.75500000  26.19000000
 H  49.85000000  46.60900000  26.79600000
 H  48.47100000  45.60700000  26.28400000
 H  50.06800000  44.86200000  26.53500000
 C  49.15200000  47.23900000  24.21800000
 H  49.39100000  47.39900000  23.16600000
 H  48.07900000  47.08100000  24.32700000
 H  49.45000000  48.11500000  24.79500000
 C  52.13900000  45.03400000  25.19700000
 O  52.12400000  43.93500000  24.64400000
 N  52.77900000  45.26200000  26.33700000
 H  52.78200000  46.19000000  26.73500000
 C  53.48300000  44.20400000  27.04800000
 H  53.43500000  43.27900000  26.47300000
 C  54.95300000  44.57800000  27.25200000
 H  54.97500000  45.47000000  27.87900000
 H  55.42600000  43.75100000  27.78100000
 C  55.70700000  44.84900000  25.95900000
 H  55.19900000  45.65200000  25.42500000
 H  56.72000000  45.16500000  26.21000000
 C  55.76600000  43.61200000  25.07700000
 H  54.75200000  43.25600000  24.89700000
 H  56.23200000  43.87500000  24.12700000
 N  56.53700000  42.53700000  25.69400000
 H  56.91800000  42.70900000  26.61300000
 C  56.75900000  41.35600000  25.12600000
 N  56.26700000  41.09300000  23.92200000
 H  55.72300000  41.79300000  23.43800000
 H  56.43900000  40.19400000  23.49500000
 N  57.47900000  40.43800000  25.75700000
 H  57.85900000  40.63900000  26.67100000
 H  57.64400000  39.54200000  25.32000000
 C  52.79400000  44.04500000  28.39500000
 O  52.23900000  45.00600000  28.92900000
 N  52.82000000  42.83600000  28.94200000
 H  53.26200000  42.06300000  28.46600000
 C  52.18000000  42.58200000  30.22400000
 H  52.18200000  43.49100000  30.82500000
 C  50.73500000  42.14300000  30.01000000
 H  50.71700000  41.22800000  29.41700000
 H  50.26400000  41.95900000  30.97600000
 H  50.19100000  42.92700000  29.48400000
 C  52.93500000  41.51800000  30.99800000
 O  53.44200000  40.56100000  30.41600000
 N  53.01300000  41.68800000  32.31200000
 H  52.62400000  42.50900000  32.75300000
 C  53.69800000  40.71700000  33.14800000
 H  53.51500000  39.71100000  32.77000000
 C  55.20900000  40.97400000  33.14500000
 H  55.72800000  40.17100000  33.66900000
 H  55.57800000  41.03700000  32.12100000
 S  55.71400000  42.50900000  33.95400000
 H  57.01800000  42.35600000  33.74200000
 H  53.33200000  40.73900000  34.17400000
 H  45.40200000  38.61000000  40.57800000
 C  46.46000000  38.72300000  40.34000000
 H  47.07100000  38.39800000  41.18200000
 C  46.81000000  37.86700000  39.12300000
 H  47.88900000  37.92900000  38.98500000
 H  46.53400000  36.84000000  39.36100000
 C  46.10800000  38.29700000  37.83900000
 H  45.03100000  38.27300000  38.00400000
 H  46.41500000  39.31400000  37.59600000
 S  46.51900000  37.21600000  36.47300000
 C  45.17200000  37.57200000  35.33100000
 H  45.18800000  38.63000000  35.06800000
 H  45.29100000  36.97200000  34.42900000
 H  44.22000000  37.33100000  35.80400000
 H  46.75700000  39.75100000  40.13500000
 H  49.60700000  42.76900000  37.85200000
 C  50.25400000  42.79200000  36.97500000
 H  51.25600000  42.46600000  37.25500000
 C  49.72300000  41.85900000  35.86400000
 H  50.40000000  41.81000000  35.01100000
 H  49.62000000  40.86700000  36.30300000
 C  48.36600000  42.23200000  35.31800000
 C  48.24800000  42.84600000  34.07300000
 H  49.15300000  43.10800000  33.52400000
 C  46.99600000  43.12600000  33.52700000
 H  46.91900000  43.60300000  32.55000000
 C  45.84600000  42.79500000  34.23100000
 H  44.86400000  43.01000000  33.80900000
 C  45.94900000  42.18900000  35.47400000
 H  45.04800000  41.93000000  36.03000000
 C  47.20500000  41.91100000  36.01300000
 H  47.28500000  41.43600000  36.99100000
 C  50.41400000  44.20900000  36.47900000
 O  49.77300000  45.13800000  36.97600000
 N  51.31400000  44.37500000  35.52100000
 H  51.84700000  43.58400000  35.18800000
 C  51.57200000  45.67200000  34.93500000
 H  50.80200000  46.37600000  35.24900000
 C  52.93800000  46.20800000  35.38200000
 H  52.85300000  46.47600000  36.43500000
 H  53.65800000  45.39700000  35.27100000
 C  53.41100000  47.42100000  34.58500000
 H  53.70100000  47.07600000  33.59300000
 H  52.57200000  48.11100000  34.49800000
 C  54.58700000  48.13200000  35.23800000
 H  55.31200000  47.39100000  35.57400000
 H  55.05600000  48.79400000  34.51000000
 N  54.16200000  48.92700000  36.38800000
 H  53.22300000  48.77900000  36.73000000
 C  54.92900000  49.82000000  37.00500000
 N  56.16700000  50.03900000  36.58600000
 H  56.52800000  49.52500000  35.79500000
 H  56.74400000  50.71900000  37.06000000
 N  54.45500000  50.49800000  38.04200000
 H  53.51100000  50.33300000  38.36000000
 H  55.04100000  51.17600000  38.50900000
 C  51.54400000  45.53200000  33.42700000
 O  51.99900000  44.52700000  32.87700000
 N  50.97600000  46.53000000  32.76700000
 H  50.55500000  47.30200000  33.26500000
 C  50.92900000  46.54000000  31.31600000
 H  51.44100000  45.66700000  30.91100000
 C  49.47900000  46.55900000  30.77300000
 H  49.50100000  46.68100000  29.69000000
 C  48.78200000  45.25400000  31.12200000
 H  48.76000000  45.13200000  32.20500000
 H  47.76200000  45.27200000  30.73800000
 H  49.32400000  44.42100000  30.67400000
 C  48.71600000  47.73500000  31.34000000
 H  49.21300000  48.66200000  31.05500000
 H  47.69900000  47.73200000  30.94800000
 H  48.68600000  47.65900000  32.42700000
 C  51.66800000  47.78800000  30.86100000
 O  51.57100000  48.84600000  31.48600000
 N  52.43300000  47.64900000  29.78800000
 H  52.50500000  46.75200000  29.32800000
 C  53.19700000  48.76300000  29.24900000
 H  53.05800000  49.64500000  29.87400000
 C  54.68700000  48.41700000  29.21500000
 H  54.81700000  47.62200000  28.48000000
 H  55.21800000  49.30900000  28.88200000
 C  55.24600000  47.96500000  30.55300000
 H  55.04600000  48.75500000  31.27700000
 H  54.72100000  47.05800000  30.85100000
 C  56.73600000  47.69200000  30.50200000
 O  57.17300000  46.93600000  29.60800000
 O  57.46800000  48.22700000  31.35800000
 C  52.70400000  49.06100000  27.84600000
 O  52.56100000  48.15800000  27.02400000
 N  52.43200000  50.33200000  27.58100000
 H  52.53400000  51.03200000  28.30100000
 C  51.95600000  50.75300000  26.27300000
 H  52.39400000  50.12100000  25.50100000
 C  50.43000000  50.63800000  26.19200000
 H  50.13700000  51.02900000  25.21800000
 H  50.19200000  49.57600000  26.24400000
 C  49.67400000  51.38100000  27.28500000
 H  50.16800000  52.34000000  27.44200000
 H  48.65600000  51.55100000  26.93300000
 S  49.61900000  50.47800000  28.84800000
 C  50.71900000  51.42600000  29.86200000
 H  50.34700000  52.44700000  29.94600000
 H  50.77700000  50.97800000  30.85400000
 H  51.71100000  51.43700000  29.41100000
 C  52.37800000  52.18700000  26.00900000
 O  53.33200000  52.68200000  26.60600000
 N  51.66200000  52.85200000  25.11100000
 H  50.89800000  52.40000000  24.63000000
 C  51.96800000  54.23300000  24.77400000
 H  52.85100000  54.58100000  25.30900000
 C  52.21500000  54.39200000  23.25900000
 H  51.31700000  54.09700000  22.71600000
 C  52.55000000  55.83900000  22.93400000
 H  53.44800000  56.13500000  23.47600000
 H  52.72300000  55.94100000  21.86300000
 H  51.72000000  56.48000000  23.23000000
 C  53.34200000  53.47300000  22.81900000
 H  53.07200000  52.43900000  23.03200000
 H  53.51100000  53.59100000  21.74900000
 H  54.25300000  53.72900000  23.36000000
 C  50.83300000  55.16100000  25.18600000
 O  49.66200000  54.88300000  24.92900000
 N  51.19400000  56.25900000  25.84100000
 H  52.16900000  56.41300000  26.05300000
 C  50.22600000  57.25400000  26.28200000
 H  49.25900000  57.05300000  25.82100000
 C  50.06000000  57.21600000  27.80400000
 H  49.46600000  56.36100000  28.12600000
 H  51.04700000  57.16500000  28.26300000
 C  49.38900000  58.44000000  28.36100000
 C  49.95400000  59.39200000  29.15900000
 H  50.99500000  59.23900000  29.44400000
 N  49.04100000  60.38000000  29.44000000
 H  49.21400000  61.19600000  30.01000000
 C  47.85700000  60.08000000  28.82000000
 C  46.64400000  60.77800000  28.80800000
 H  46.57600000  61.71300000  29.36400000
 C  45.60800000  60.23500000  28.09000000
 H  44.64800000  60.75100000  28.05700000
 C  45.75500000  59.02200000  27.39200000
 H  44.92700000  58.59700000  26.82600000
 C  46.96300000  58.32900000  27.40400000
 H  47.02800000  57.39500000  26.84500000
 C  48.03800000  58.86100000  28.12900000
 H  50.57200000  58.24200000  25.97700000
 H  54.22900000  54.42100000  29.03300000
 C  53.71400000  54.47000000  29.99200000
 H  54.31500000  55.03200000  30.70700000
 C  52.36200000  55.17000000  29.83200000
 H  51.87600000  55.27600000  30.80200000
 H  52.49800000  56.15500000  29.38500000
 S  51.18300000  54.29600000  28.77200000
 H  50.20200000  55.18600000  28.89200000
 C  53.49900000  53.07700000  30.56900000
 O  53.69200000  52.07300000  29.88500000
 N  53.10000000  53.03100000  31.83500000
 H  52.98100000  53.89100000  32.35000000
 C  52.84400000  51.77300000  32.52300000
 H  52.70500000  50.95700000  31.81400000
 C  54.00900000  51.42700000  33.44100000
 H  54.15500000  52.23100000  34.16200000
 H  53.79200000  50.50000000  33.97100000
 H  54.91500000  51.30200000  32.84800000
 C  51.56200000  51.90300000  33.33100000
 O  51.26000000  52.96900000  33.87000000
 N  50.80500000  50.81400000  33.40200000
 H  51.09100000  49.97100000  32.92500000
 C  49.55600000  50.79400000  34.14700000
 H  49.47100000  51.69500000  34.75400000
 C  48.36700000  50.73900000  33.18400000
 H  48.45700000  51.64400000  32.58200000
 H  48.50600000  49.86500000  32.54800000
 C  46.97800000  50.68800000  33.82300000
 H  46.95600000  49.90300000  34.57800000
 C  46.66300000  52.02800000  34.47500000
 H  46.68400000  52.81400000  33.72000000
 H  45.67300000  51.98800000  34.92900000
 H  47.40600000  52.24200000  35.24300000
 C  45.93800000  50.35000000  32.76600000
 H  46.16800000  49.38000000  32.32600000
 H  44.95000000  50.31500000  33.22600000
 H  45.94900000  51.11300000  31.98800000
 C  49.52400000  49.57300000  35.05900000
 O  49.72000000  48.44600000  34.60200000
 N  49.29600000  49.80200000  36.34900000
 H  49.20000000  50.74900000  36.68700000
 C  49.21200000  48.71000000  37.31600000
 H  49.80600000  47.86200000  36.97500000
 C  49.74800000  49.16900000  38.66800000
 H  49.17100000  50.03500000  38.99200000
 H  49.61000000  48.35400000  39.37900000
 C  51.21400000  49.53700000  38.60100000
 O  52.00500000  48.69800000  38.12600000
 O  51.57500000  50.65800000  39.01400000
 C  47.75400000  48.27500000  37.42200000
 O  46.86200000  49.10300000  37.60000000
 N  47.53000000  46.96900000  37.33400000
 H  48.31300000  46.33300000  37.28300000
 C  46.18500000  46.40900000  37.33500000
 H  45.42700000  47.09800000  37.70800000
 C  45.80100000  45.98400000  35.87900000
 H  46.45000000  45.16400000  35.57100000
 C  44.35400000  45.53700000  35.80800000
 H  43.70500000  46.35700000  36.11600000
 H  44.11300000  45.24700000  34.78500000
 H  44.20300000  44.68600000  36.47200000
 C  46.07700000  47.12200000  34.90700000