# 1oh0_19nt_crystal_distance_cutoff4_xtb
%maxcore 2000
%pal nprocs 32 end
! XTB2 opt
%geom Constraints
 { C 47 C }
 { C 66 C }
 { C 80 C }
 { C 90 C }
 { C 109 C }
 { C 116 C }
 { C 133 C }
 { C 147 C }
 { C 165 C }
 { C 179 C }
 { C 194 C }
 { C 211 C }
 { C 225 C }
 { C 236 C }
 { C 251 C }
 { C 259 C }
 end
end
* xyz -1 1
 C  43.84900000  42.79100000  31.44300000
 O  43.55300000  41.82500000  32.07900000
 C  43.61000000  44.15300000  31.96500000
 C  43.83200000  45.25800000  31.25800000
 C  44.45600000  45.20900000  29.87000000
 C  45.30900000  43.94200000  29.75600000
 C  44.47300000  42.70500000  30.06700000
 C  43.11500000  46.53500000  31.62300000
 C  43.88800000  47.78500000  31.20400000
 C  44.30000000  47.72800000  29.73400000
 C  45.24000000  46.51000000  29.53800000
 C  44.97900000  49.00900000  29.24700000
 C  45.51500000  48.95000000  27.79900000
 C  46.54000000  47.81900000  27.70700000
 C  45.92600000  46.47900000  28.15300000
 C  44.20700000  50.33900000  29.30300000
 C  44.96900000  51.25800000  28.31400000
 C  46.08100000  50.37600000  27.70000000
 C  44.42500000  48.74900000  26.73100000
 O  46.42400000  50.73800000  26.38900000
 H  43.23200000  44.25800000  32.98200000
 H  43.67000000  45.15900000  29.11600000
 H  46.12700000  44.00300000  30.47400000
 H  45.70300000  43.86500000  28.74300000
 H  43.67200000  42.63800000  29.33100000
 H  45.11300000  41.82300000  30.02200000
 H  43.01400000  46.55800000  32.70800000
 H  42.14300000  46.54300000  31.13000000
 H  44.79300000  47.84300000  31.80900000
 H  43.25900000  48.66000000  31.36200000
 H  43.39500000  47.62400000  29.13400000
 H  46.07400000  46.59900000  30.23400000
 H  45.76100000  49.02400000  30.00800000
 H  47.37600000  48.05400000  28.36500000
 H  46.88000000  47.72900000  26.67500000
 H  45.14500000  46.24400000  27.43000000
 H  46.72100000  45.73400000  28.18400000
 H  44.16000000  50.75500000  30.30900000
 H  43.17400000  50.20100000  28.98600000
 H  45.38100000  52.13400000  28.81400000
 H  44.29800000  51.62100000  27.53600000
 H  47.02600000  50.48800000  28.23000000
 H  43.44800000  48.95800000  27.16600000
 H  44.60300000  49.42800000  25.89700000
 H  44.45000000  47.72000000  26.37300000
 H  47.20800000  50.25500000  26.11800000
 H  46.86400000  33.62100000  30.90900000
 C  46.30900000  34.45100000  30.47100000
 H  45.90900000  34.16600000  29.49800000
 C  45.14300000  34.82800000  31.38700000
 H  44.39900000  34.04000000  31.27500000
 H  45.51400000  34.83400000  32.41200000
 C  44.51300000  36.16200000  31.07300000
 C  43.52200000  36.28900000  30.10100000
 H  43.18500000  35.40100000  29.56700000
 C  42.96300000  37.53300000  29.80800000
 H  42.18700000  37.62800000  29.04900000
 C  43.40300000  38.65600000  30.49500000
 O  42.86900000  39.88800000  30.22100000
 H  42.19700000  39.86200000  29.53600000
 C  44.38300000  38.54700000  31.46000000
 H  44.72900000  39.42900000  31.99900000
 C  44.92700000  37.30800000  31.74200000
 H  45.70000000  37.21300000  32.50500000
 H  46.96400000  35.30900000  30.31700000
 H  48.25500000  38.00600000  26.76900000
 C  48.10600000  39.07700000  26.63100000
 H  47.35600000  39.26500000  25.86300000
 C  47.64900000  39.75900000  27.94600000
 H  48.31800000  39.46000000  28.75300000
 C  47.68100000  41.27400000  27.79500000
 H  47.01200000  41.57300000  26.98800000
 H  47.35800000  41.73900000  28.72600000
 H  48.69600000  41.59500000  27.56200000
 C  46.24500000  39.29700000  28.30400000
 H  46.24100000  38.21500000  28.43900000
 H  45.92800000  39.77900000  29.22900000
 H  45.55800000  39.56500000  27.50100000
 H  49.04400000  39.52600000  26.30500000
 H  36.32500000  46.13000000  32.59500000
 C  37.33900000  46.52400000  32.53100000
 H  37.82700000  46.53800000  33.50500000
 C  38.11800000  45.58200000  31.60600000
 H  38.09500000  44.59400000  32.06600000
 H  37.59500000  45.54900000  30.65000000
 C  39.55300000  45.99800000  31.38000000
 O  39.95800000  47.09800000  31.80000000
 O  40.28600000  45.19700000  30.75500000
 H  37.33500000  47.53800000  32.13200000
 H  39.72200000  42.83200000  23.17800000
 C  40.79300000  42.62700000  23.19000000
 H  41.26900000  43.21600000  23.97400000
 C  41.06200000  41.14400000  23.46000000
 H  40.30800000  40.59000000  22.90200000
 H  42.05200000  40.88900000  23.08300000
 C  40.97200000  40.78100000  24.92700000
 C  39.79800000  40.25800000  25.46800000
 H  38.94600000  40.08700000  24.81000000
 C  39.70200000  39.95400000  26.82800000
 H  38.77700000  39.54700000  27.23800000
 C  40.78800000  40.17700000  27.65800000
 O  40.67900000  39.87000000  28.99500000
 H  39.81900000  39.51500000  29.22900000
 C  41.96700000  40.69700000  27.14500000
 H  42.82300000  40.87400000  27.79700000
 C  42.05300000  40.99400000  25.78300000
 H  42.97700000  41.40000000  25.37100000
 H  41.28300000  42.93900000  22.26800000
 H  42.40200000  46.73900000  22.57200000
 C  43.14600000  46.94500000  23.34200000
 H  43.15900000  48.02500000  23.49000000
 H  42.80200000  46.45800000  24.25500000
 C  44.55300000  46.47200000  23.03100000
 O  45.52500000  47.12800000  23.41100000
 N  44.67000000  45.34800000  22.33100000
 H  43.84400000  44.84400000  22.04100000
 C  45.97500000  44.78300000  22.00300000
 H  46.76800000  45.36700000  22.46900000
 C  46.05400000  43.34600000  22.52500000
 H  45.40000000  42.78200000  21.86000000
 H  47.08300000  43.01000000  22.39400000
 C  45.62400000  43.11800000  23.97800000
 H  44.60200000  43.47200000  24.11500000
 C  45.69300000  41.63500000  24.29800000
 H  46.71500000  41.28000000  24.16100000
 H  45.38700000  41.47100000  25.33100000
 H  45.02700000  41.08800000  23.63100000
 C  46.51600000  43.91500000  24.91300000
 H  46.43500000  44.97600000  24.67700000
 H  46.20400000  43.74800000  25.94400000
 H  47.55000000  43.59400000  24.79000000
 H  46.20000000  44.78700000  20.93600000
 H  51.71700000  46.34300000  23.53500000
 C  51.42500000  46.22900000  24.57900000
 H  51.71200000  47.10900000  25.15400000
 C  49.89900000  46.01700000  24.72800000
 H  49.59500000  45.16300000  24.12300000
 C  49.54700000  45.75500000  26.19000000
 H  49.85000000  46.60900000  26.79600000
 H  48.47100000  45.60700000  26.28400000
 H  50.06800000  44.86200000  26.53500000
 C  49.15200000  47.23900000  24.21800000
 H  49.39100000  47.39900000  23.16600000
 H  48.07900000  47.08100000  24.32700000
 H  49.45000000  48.11500000  24.79500000
 H  51.93600000  45.37400000  25.02100000
 H  49.60700000  42.76900000  37.85200000
 C  50.25400000  42.79200000  36.97500000
 H  51.25600000  42.46600000  37.25500000
 C  49.72300000  41.85900000  35.86400000
 H  50.40000000  41.81000000  35.01100000
 H  49.62000000  40.86700000  36.30300000
 C  48.36600000  42.23200000  35.31800000
 C  48.24800000  42.84600000  34.07300000
 H  49.15300000  43.10800000  33.52400000
 C  46.99600000  43.12600000  33.52700000
 H  46.91900000  43.60300000  32.55000000
 C  45.84600000  42.79500000  34.23100000
 H  44.86400000  43.01000000  33.80900000
 C  45.94900000  42.18900000  35.47400000
 H  45.04800000  41.93000000  36.03000000
 C  47.20500000  41.91100000  36.01300000
 H  47.28500000  41.43600000  36.99100000
 H  50.37000000  43.81500000  36.61700000
 H  50.96400000  46.53200000  32.40500000
 C  50.92900000  46.54000000  31.31600000
 H  51.44100000  45.66700000  30.91100000
 C  49.47900000  46.55900000  30.77300000
 H  49.50100000  46.68100000  29.69000000
 C  48.78200000  45.25400000  31.12200000
 H  48.76000000  45.13200000  32.20500000
 H  47.76200000  45.27200000  30.73800000
 H  49.32400000  44.42100000  30.67400000
 C  48.71600000  47.73500000  31.34000000
 H  49.21300000  48.66200000  31.05500000
 H  47.69900000  47.73200000  30.94800000
 H  48.68600000  47.65900000  32.42700000
 H  51.45900000  47.43500000  30.99000000
 H  52.31300000  50.43700000  27.25300000
 C  51.95600000  50.75300000  26.27300000
 H  52.39400000  50.12100000  25.50100000
 C  50.43000000  50.63800000  26.19200000
 H  50.13700000  51.02900000  25.21800000
 H  50.19200000  49.57600000  26.24400000
 C  49.67400000  51.38100000  27.28500000
 H  50.16800000  52.34000000  27.44200000
 H  48.65600000  51.55100000  26.93300000
 S  49.61900000  50.47800000  28.84800000
 C  50.71900000  51.42600000  29.86200000
 H  50.34700000  52.44700000  29.94600000
 H  50.77700000  50.97800000  30.85400000
 H  51.71100000  51.43700000  29.41100000
 H  52.25900000  51.78300000  26.08300000
 H  50.49200000  50.80900000  33.58900000
 C  49.55600000  50.79400000  34.14700000
 H  49.47100000  51.69500000  34.75400000
 C  48.36700000  50.73900000  33.18400000
 H  48.45700000  51.64400000  32.58200000
 H  48.50600000  49.86500000  32.54800000
 C  46.97800000  50.68800000  33.82300000
 H  46.95600000  49.90300000  34.57800000
 C  46.66300000  52.02800000  34.47500000
 H  46.68400000  52.81400000  33.72000000
 H  45.67300000  51.98800000  34.92900000
 H  47.40600000  52.24200000  35.24300000
 C  45.93800000  50.35000000  32.76600000
 H  46.16800000  49.38000000  32.32600000
 H  44.95000000  50.31500000  33.22600000
 H  45.94900000  51.11300000  31.98800000
 H  49.53300000  49.92100000  34.79900000
 H  47.19100000  46.82800000  37.33400000
 C  46.18500000  46.40900000  37.33500000
 H  45.42700000  47.09800000  37.70800000
 C  45.80100000  45.98400000  35.87900000
 H  46.45000000  45.16400000  35.57100000
 C  44.35400000  45.53700000  35.80800000
 H  43.70500000  46.35700000  36.11600000
 H  44.11300000  45.24700000  34.78500000
 H  44.20300000  44.68600000  36.47200000
 C  46.07700000  47.12200000  34.90700000
 H  47.13700000  47.37600000  34.93600000
 H  45.80500000  46.81300000  33.89800000
 H  45.48700000  47.99400000  35.19000000
 H  46.10800000  45.51900000  37.96000000
 H  43.16600000  41.67600000  38.14100000
 C  42.31000000  41.17300000  37.69100000
 H  41.55300000  41.91400000  37.43500000
 C  42.70200000  40.41500000  36.42000000
 H  43.68800000  39.98100000  36.58400000
 H  41.97200000  39.61700000  36.28800000
 C  42.73200000  41.28200000  35.17900000
 O  42.55800000  42.51700000  35.26900000
 O  42.94700000  40.68400000  34.09600000
 H  42.94600000  41.31700000  33.37500000
 H  41.93400000  40.43200000  38.39700000
 H  35.82800000  38.42500000  34.57900000
 C  36.78100000  38.93000000  34.73600000
 H  37.31300000  38.43100000  35.54600000
 C  37.66700000  38.91500000  33.48600000
 H  37.81200000  37.87200000  33.20600000
 H  37.12000000  39.43000000  32.69600000
 C  39.03800000  39.58900000  33.68300000
 H  39.38500000  39.31000000  34.67800000
 H  39.70600000  39.16500000  32.93400000
 S  39.04600000  41.39100000  33.53500000
 C  39.69300000  41.55600000  31.86000000
 H  39.02400000  41.05500000  31.16000000
 H  39.76500000  42.61200000  31.60000000
 H  40.68200000  41.10100000  31.80500000
 H  36.54400000  39.95900000  35.00500000
 H  38.98700000  44.06600000  36.02700000
 C  39.96900000  44.53800000  36.04100000
 H  40.69200000  43.87300000  36.51400000
 C  40.42700000  44.82000000  34.61400000
 H  39.71800000  45.49200000  34.13100000
 H  41.41300000  45.28500000  34.63300000
 H  40.47800000  43.88500000  34.05700000
 H  39.94800000  45.46400000  36.61600000
 H  41.80100000  49.34900000  37.99900000
 C  42.54500000  50.10300000  37.74300000
 H  43.20600000  50.25400000  38.59700000
 C  43.39400000  49.68800000  36.53200000
 H  44.18400000  50.42700000  36.39600000
 H  43.84000000  48.70700000  36.69500000
 C  42.64200000  49.61000000  35.21900000
 C  41.97400000  48.52800000  34.72200000
 H  41.96200000  47.63300000  35.34400000
 N  41.43900000  48.82100000  33.49000000
 H  40.90200000  48.18700000  32.91700000
 C  41.75300000  50.11400000  33.16600000
 C  41.43400000  50.85700000  32.02400000
 H  40.84600000  50.37900000  31.24000000
 C  41.88600000  52.15100000  31.96300000
 H  41.65700000  52.75900000  31.08800000
 C  42.64100000  52.71500000  33.00700000
 H  42.99500000  53.74400000  32.95100000
 C  42.95900000  51.97300000  34.14600000
 H  43.55000000  52.45300000  34.92600000
 C  42.51000000  50.64700000  34.23400000
 H  42.04900000  51.04300000  37.50100000
 O  41.55700000  46.41800000  28.60900000
 H  42.51400000  46.41800000  28.60900000
 H  41.31700000  47.34500000  28.60900000
 O  41.50700000  45.26800000  25.63700000
 H  42.46400000  45.26800000  25.63700000
 H  41.26700000  46.19500000  25.63700000
*