# 1oh0_19nt_mm_minimized_distance_cutoff7_xtb
%maxcore 2000
%pal nprocs 32 end
! XTB2 opt
%geom Constraints
 { C 47 C }
 { C 68 C }
 { C 85 C }
 { C 101 C }
 { C 111 C }
 { C 128 C }
 { C 147 C }
 { C 163 C }
 { C 178 C }
 { C 198 C }
 { C 204 C }
 { C 222 C }
 { C 242 C }
 { C 261 C }
 { C 278 C }
 { C 285 C }
 { C 304 C }
 { C 311 C }
 { C 316 C }
 { C 338 C }
 { C 354 C }
 { C 378 C }
 { C 386 C }
 { C 401 C }
 { C 421 C }
 { C 445 C }
 { C 461 C }
 { C 476 C }
 { C 493 C }
 { C 509 C }
 { C 531 C }
 { C 540 C }
 { C 557 C }
 { C 573 C }
 { C 592 C }
 { C 603 C }
 { C 618 C }
 { C 635 C }
 { C 652 C }
 { C 662 C }
 { C 683 C }
 { C 707 C }
 { C 716 C }
 end
end
* xyz -1 1
 C  44.00100000  42.84500000  31.33500000
 O  43.72300000  41.87900000  31.98000000
 C  43.79100000  44.20800000  31.86900000
 C  43.99400000  45.31200000  31.15600000
 C  44.56500000  45.26200000  29.74500000
 C  45.40500000  43.99000000  29.59700000
 C  44.57300000  42.75700000  29.93600000
 C  43.29900000  46.59300000  31.55000000
 C  44.06500000  47.83900000  31.10500000
 C  44.42100000  47.78200000  29.62000000
 C  45.34500000  46.55800000  29.38600000
 C  45.09000000  49.06000000  29.11100000
 C  45.57100000  49.00000000  27.64400000
 C  46.58400000  47.86300000  27.51000000
 C  45.97800000  46.52600000  27.97700000
 C  44.32900000  50.39500000  29.19800000
 C  45.06000000  51.31000000  28.18300000
 C  46.14200000  50.42300000  27.52600000
 C  44.44000000  48.80900000  26.61600000
 O  46.43800000  50.78500000  26.20300000
 H  43.45200000  44.31200000  32.89900000
 H  43.75100000  45.21900000  29.02100000
 H  46.25000000  44.04400000  30.28400000
 H  45.76000000  43.91200000  28.56900000
 H  43.74500000  42.69800000  29.23100000
 H  45.20500000  41.87200000  29.86600000
 H  43.23900000  46.61400000  32.63800000
 H  42.31000000  46.60900000  31.09300000
 H  44.99200000  47.88900000  31.67500000
 H  43.44700000  48.71800000  31.28700000
 H  43.49400000  47.68600000  29.05400000
 H  46.20500000  46.64000000  30.05100000
 H  45.89900000  49.06800000  29.84100000
 H  47.44600000  48.09100000  28.13700000
 H  46.88500000  47.77300000  26.46600000
 H  45.16900000  46.29800000  27.28300000
 H  46.76900000  45.77600000  27.97700000
 H  44.32300000  50.80800000  30.20600000
 H  43.28400000  50.26500000  28.92000000
 H  45.49600000  52.18300000  28.66800000
 H  44.36300000  51.68000000  27.43100000
 H  47.10700000  50.52800000  28.02100000
 H  43.48100000  49.02300000  27.08800000
 H  44.59100000  49.48900000  25.77800000
 H  44.44500000  47.78000000  26.25600000
 H  47.20800000  50.29700000  25.90200000
 H  46.89400000  33.74900000  31.03900000
 C  46.35400000  34.58800000  30.60100000
 H  45.95400000  34.28400000  29.63300000
 C  45.17100000  34.94700000  31.51400000
 H  44.42100000  34.15700000  31.44900000
 H  45.51300000  34.98000000  32.54800000
 C  44.52300000  36.28000000  31.19800000
 C  43.46200000  36.35800000  30.27700000
 H  43.09700000  35.46300000  29.79200000
 C  42.88100000  37.60800000  29.98600000
 H  42.07200000  37.68800000  29.28000000
 C  43.35900000  38.77700000  30.61500000
 O  42.78900000  39.97300000  30.32800000
 H  43.14600000  40.70100000  30.89600000
 C  44.42400000  38.69700000  31.53400000
 H  44.79300000  39.59600000  32.00700000
 C  45.00300000  37.44900000  31.82100000
 H  45.82600000  37.39200000  32.51900000
 C  47.26800000  35.80000000  30.34600000
 O  47.26500000  36.35600000  29.24800000
 N  48.11400000  36.15200000  31.32200000
 H  48.06300000  35.64900000  32.19800000
 C  49.06000000  37.27300000  31.20500000
 H  48.49500000  38.16700000  30.94000000
 C  49.75100000  37.51900000  32.56800000
 H  50.22800000  36.58500000  32.87300000
 C  50.85600000  38.58500000  32.47800000
 H  51.24000000  38.80300000  33.47300000
 H  50.46700000  39.49800000  32.02900000
 H  51.67500000  38.22000000  31.86200000
 C  48.74600000  37.90500000  33.68000000
 H  48.00600000  37.11400000  33.78600000
 H  49.28400000  37.96300000  34.62600000
 C  48.00800000  39.23600000  33.47500000
 H  47.34100000  39.41500000  34.31900000
 H  47.41500000  39.21400000  32.56200000
 H  48.72100000  40.05600000  33.42200000
 H  49.77900000  37.12700000  30.39900000
 H  48.12800000  38.16600000  26.69800000
 C  48.06300000  39.25100000  26.62000000
 H  47.33300000  39.51000000  25.85600000
 C  47.58400000  39.84700000  27.96100000
 H  48.21800000  39.46900000  28.76300000
 C  47.63900000  41.37800000  27.99600000
 H  48.65000000  41.73500000  27.81100000
 H  46.97500000  41.78600000  27.23900000
 H  47.33100000  41.73400000  28.97900000
 C  46.13300000  39.44100000  28.25300000
 H  45.85000000  39.78700000  29.24500000
 H  46.02100000  38.35800000  28.23200000
 H  45.45900000  39.87700000  27.51500000
 C  49.40200000  39.85800000  26.18000000
 O  49.43900000  40.68800000  25.26900000
 N  50.50600000  39.41100000  26.78100000
 H  50.40100000  38.73400000  27.53200000
 C  51.86400000  39.88800000  26.50300000
 H  51.90000000  40.96300000  26.68100000
 C  52.82000000  39.19400000  27.48200000
 H  52.47500000  39.37100000  28.49800000
 H  52.81500000  38.12000000  27.30600000
 C  54.24400000  39.71500000  27.35600000
 O  54.45500000  40.93200000  27.56000000
 O  55.15400000  38.91700000  27.04000000
 H  52.18400000  39.71400000  25.47600000
 H  43.03000000  34.27900000  24.37100000
 C  42.52600000  34.83100000  25.16400000
 H  42.88500000  34.47000000  26.12900000
 C  42.82100000  36.35000000  25.07000000
 H  42.60200000  36.67500000  24.05100000
 C  41.93200000  37.16400000  26.03200000
 H  42.05200000  36.79400000  27.05000000
 H  40.88300000  37.09600000  25.74500000
 H  42.20300000  38.21900000  26.00700000
 C  44.30300000  36.65300000  25.37400000
 H  44.48600000  36.59700000  26.44900000
 H  44.92400000  35.90400000  24.89500000
 C  44.75600000  38.02100000  24.84700000
 H  45.83600000  38.10100000  24.94600000
 H  44.50000000  38.12200000  23.79300000
 H  44.29000000  38.82500000  25.41400000
 H  41.45300000  34.64200000  25.12500000
 H  37.81600000  32.63500000  28.06300000
 C  36.81300000  32.93200000  28.36800000
 H  36.78800000  33.00300000  29.45300000
 C  36.49500000  34.32200000  27.80200000
 H  36.78200000  34.37000000  26.75000000
 H  35.41900000  34.49000000  27.84900000
 C  37.17300000  35.43200000  28.57600000
 C  38.36800000  36.01500000  28.11600000
 H  38.80500000  35.69300000  27.18400000
 C  39.00200000  37.01200000  28.88200000
 H  39.92500000  37.45100000  28.54000000
 C  38.43100000  37.43900000  30.10000000
 O  39.02200000  38.41200000  30.83500000
 H  39.52700000  39.01600000  30.26900000
 C  37.23100000  36.85900000  30.55100000
 H  36.78900000  37.19300000  31.47500000
 C  36.61300000  35.85200000  29.79400000
 H  35.71500000  35.38700000  30.16400000
 H  36.04500000  32.21300000  28.08300000
 H  33.37100000  40.88600000  31.28700000
 C  34.27600000  41.43700000  31.54200000
 H  34.73600000  40.96400000  32.40800000
 C  35.32900000  41.40900000  30.41200000
 H  34.91200000  41.86800000  29.52200000
 C  36.59000000  42.19000000  30.80500000
 H  37.35300000  42.08500000  30.03200000
 H  36.36300000  43.25200000  30.90200000
 H  36.98300000  41.82000000  31.75100000
 C  35.75000000  39.98200000  30.04500000
 H  34.89700000  39.42500000  29.66200000
 H  36.52100000  40.00400000  29.27400000
 H  36.13700000  39.47400000  30.92500000
 C  33.92000000  42.86700000  31.93800000
 O  33.28500000  43.58900000  31.17100000
 N  34.33000000  43.26500000  33.14100000
 H  34.83400000  42.59200000  33.70800000
 C  34.18800000  44.61300000  33.69900000
 H  33.51700000  45.21300000  33.08200000
 C  33.58900000  44.53000000  35.11400000
 H  34.20300000  43.86000000  35.71500000
 H  33.62300000  45.51800000  35.56800000
 C  32.14100000  44.02200000  35.13200000
 H  32.07200000  43.11000000  34.53600000
 H  31.48900000  44.77600000  34.68300000
 C  31.67800000  43.70300000  36.55600000
 O  31.76000000  42.52200000  36.96800000
 O  31.24700000  44.61600000  37.29300000
 C  35.56100000  45.30000000  33.71900000
 O  36.34200000  45.11400000  34.65600000
 N  35.86200000  46.06800000  32.66900000
 H  35.19400000  46.15800000  31.92000000
 C  37.16400000  46.71200000  32.46500000
 H  37.70200000  46.70800000  33.40800000
 C  38.01200000  45.86600000  31.50100000
 H  37.47600000  45.75600000  30.55600000
 H  38.15200000  44.87200000  31.92900000
 C  39.39000000  46.48300000  31.23300000
 O  39.86900000  47.28100000  32.06900000
 O  39.96500000  46.17500000  30.17000000
 C  37.03400000  48.16900000  31.95400000
 O  36.44600000  48.38600000  30.88700000
 N  37.58300000  49.16600000  32.68100000
 C  37.86100000  50.49400000  32.16500000
 H  38.80600000  50.46500000  31.62500000
 H  37.07500000  50.85000000  31.50200000
 C  37.99400000  51.40100000  33.38600000
 H  38.69500000  52.21400000  33.20200000
 H  37.01800000  51.79500000  33.66400000
 C  38.49800000  50.46100000  34.48100000
 H  38.15000000  50.77500000  35.46400000
 H  39.58400000  50.44000000  34.47200000
 C  37.95000000  49.08200000  34.09800000
 H  38.73900000  48.34300000  34.24100000
 C  36.74200000  48.72100000  34.97300000
 O  35.60100000  49.06300000  34.65800000
 N  36.97600000  48.09100000  36.12500000
 H  37.91800000  47.76600000  36.32000000
 C  35.90900000  47.83200000  37.09100000
 H  35.15900000  47.21300000  36.59400000
 C  36.43800000  47.04400000  38.29600000
 H  37.23100000  47.61200000  38.78300000
 H  36.86800000  46.10300000  37.94600000
 C  35.34300000  46.74100000  39.30000000
 C  34.41400000  45.71900000  39.02900000
 H  34.49600000  45.13400000  38.12400000
 C  33.34000000  45.49300000  39.90600000
 H  32.60100000  44.74000000  39.67000000
 C  33.19100000  46.28000000  41.05800000
 H  32.34800000  46.12200000  41.71700000
 C  34.11300000  47.30200000  41.33000000
 H  33.96400000  47.91400000  42.20300000
 C  35.18500000  47.54000000  40.45000000
 H  35.88300000  48.34100000  40.64400000
 H  35.42700000  48.76400000  37.38600000
 H  36.87300000  43.90900000  22.23900000
 C  37.31700000  44.52900000  23.01800000
 H  37.14900000  45.57800000  22.77200000
 C  36.59200000  44.23500000  24.33600000
 H  36.72500000  43.18500000  24.59600000
 H  35.52400000  44.40200000  24.18700000
 C  37.04600000  45.08300000  25.50400000
 C  36.34800000  46.26100000  25.83400000
 H  35.49200000  46.56700000  25.25100000
 C  36.75600000  47.03900000  26.93300000
 H  36.21100000  47.93300000  27.20400000
 C  37.87000000  46.64500000  27.69300000
 H  38.18200000  47.22900000  28.55000000
 C  38.57000000  45.47300000  27.36000000
 H  39.41800000  45.16400000  27.95900000
 C  38.15400000  44.68500000  26.27500000
 H  38.68700000  43.77100000  26.05000000
 C  38.83700000  44.32400000  23.13900000
 O  39.58400000  45.30600000  23.09800000
 N  39.31900000  43.07700000  23.22000000
 H  38.66800000  42.29800000  23.28600000
 C  40.76300000  42.80200000  23.27200000
 H  41.20200000  43.43000000  24.05000000
 C  41.04000000  41.33900000  23.64000000
 H  40.41500000  40.68500000  23.03000000
 H  42.08000000  41.11100000  23.40500000
 C  40.84600000  41.03000000  25.11100000
 C  39.84600000  40.13100000  25.52500000
 H  39.20700000  39.66000000  24.79400000
 C  39.68400000  39.84400000  26.89200000
 H  38.92800000  39.15700000  27.22700000
 C  40.52300000  40.44700000  27.84700000
 O  40.38100000  40.12800000  29.15700000
 H  41.22300000  40.29000000  29.62200000
 C  41.53200000  41.34100000  27.43500000
 H  42.17300000  41.81000000  28.16900000
 C  41.69000000  41.63200000  26.06800000
 H  42.45900000  42.32900000  25.76100000
 H  41.27500000  43.06300000  22.34600000
 H  40.77500000  46.19700000  20.17100000
 C  40.92800000  47.26700000  20.31300000
 H  41.23000000  47.71400000  19.36400000
 C  39.63300000  47.95400000  20.77200000
 H  39.86700000  48.97500000  21.07900000
 H  39.24400000  47.42800000  21.64300000
 C  38.54300000  48.02300000  19.69400000
 H  38.77600000  48.81700000  18.98500000
 H  38.49400000  47.08100000  19.14900000
 C  37.18800000  48.29400000  20.33500000
 O  36.83200000  49.42300000  20.64800000
 N  36.42700000  47.26200000  20.60500000
 H  36.75000000  46.33800000  20.35000000
 H  35.53600000  47.39800000  21.06500000
 C  42.04800000  47.55400000  21.32400000
 O  42.93200000  48.35900000  21.03500000
 N  42.04700000  46.88100000  22.48000000
 H  41.28600000  46.23600000  22.66200000
 C  43.01900000  47.11500000  23.55500000
 H  42.74400000  46.51200000  24.42200000
 H  42.98900000  48.16500000  23.84600000
 C  44.45300000  46.75400000  23.15700000
 O  45.34300000  47.60700000  23.16800000
 N  44.66800000  45.50100000  22.74700000
 H  43.86700000  44.87800000  22.70800000
 C  45.98300000  44.91200000  22.45500000
 H  46.72500000  45.39800000  23.08700000
 C  45.95800000  43.41000000  22.81700000
 H  45.33800000  42.89100000  22.08500000
 H  46.97300000  43.01800000  22.73000000
 C  45.42500000  43.06600000  24.22200000
 H  44.37900000  43.36100000  24.30000000
 C  45.51200000  41.55800000  24.45300000
 H  45.10400000  41.31700000  25.43500000
 H  44.92700000  41.03600000  23.69700000
 H  46.55000000  41.22900000  24.40100000
 C  46.21900000  43.76500000  25.32200000
 H  47.26600000  43.46000000  25.28700000
 H  46.14300000  44.84500000  25.20900000
 H  45.79000000  43.50600000  26.28900000
 C  46.45900000  45.10800000  21.00400000
 O  47.54900000  44.64600000  20.65400000
 N  45.66300000  45.75000000  20.14300000
 H  44.77000000  46.07600000  20.48600000
 C  45.88200000  45.78900000  18.69200000
 H  45.84600000  44.77300000  18.29800000
 H  45.06800000  46.34900000  18.23800000
 C  47.18800000  46.44100000  18.22400000
 O  47.75500000  45.99700000  17.22700000
 N  47.72500000  47.42200000  18.95800000
 H  47.23900000  47.72300000  19.79600000
 C  48.87800000  48.22900000  18.53000000
 H  49.03700000  49.02000000  19.26300000
 H  48.63800000  48.70100000  17.57700000
 H  49.82300000  47.69900000  18.40900000
 H  52.56500000  46.67800000  20.88500000
 C  53.24500000  47.17700000  21.57600000
 H  54.23100000  46.71800000  21.51400000
 C  53.35000000  48.66800000  21.19100000
 H  52.34700000  49.05300000  21.00000000
 H  53.75200000  49.23600000  22.03200000
 C  54.23100000  48.97700000  19.96900000
 H  54.09900000  50.03700000  19.74900000
 H  53.89000000  48.41900000  19.09700000
 C  55.73500000  48.74600000  20.20300000
 H  55.96200000  48.81500000  21.26800000
 H  56.26900000  49.55200000  19.70100000
 C  56.24000000  47.40700000  19.64600000
 H  55.92800000  47.32000000  18.60200000
 H  55.78000000  46.58600000  20.20200000
 N  57.71600000  47.31100000  19.73500000
 H  58.05600000  46.43500000  19.35400000
 H  58.02300000  47.36800000  20.70600000
 H  58.14800000  48.06900000  19.21600000
 C  52.84200000  47.04400000  23.05000000
 O  53.59200000  47.49500000  23.90900000
 N  51.68700000  46.44400000  23.35200000
 H  51.16100000  46.00300000  22.60800000
 C  51.26000000  46.16900000  24.73100000
 H  51.50000000  47.03600000  25.34200000
 C  49.74000000  45.93600000  24.83500000
 H  49.47000000  45.04400000  24.27200000
 C  49.31800000  45.72500000  26.29400000
 H  49.78600000  44.83100000  26.70500000
 H  49.59100000  46.59300000  26.89600000
 H  48.24100000  45.58400000  26.33800000
 C  48.93600000  47.11500000  24.26800000
 H  49.18600000  48.03200000  24.79900000
 H  49.14400000  47.24200000  23.20600000
 H  47.87000000  46.92500000  24.38500000
 C  52.03200000  44.96300000  25.26700000
 O  52.01800000  43.89800000  24.64600000
 N  52.68800000  45.11200000  26.42000000
 H  52.70200000  46.04600000  26.82600000
 C  53.48500000  44.06000000  27.07700000
 H  53.32400000  43.10300000  26.57800000
 C  54.98200000  44.41700000  26.98200000
 H  55.56600000  43.64900000  27.49000000
 H  55.15000000  45.36000000  27.50400000
 C  55.50300000  44.56700000  25.53800000
 H  56.52200000  44.95600000  25.57000000
 H  54.89900000  45.30000000  25.00500000
 C  55.49900000  43.25200000  24.74600000
 H  54.53800000  42.75000000  24.86500000
 H  55.62100000  43.48600000  23.68800000
 N  56.60400000  42.37700000  25.17400000
 H  57.41600000  42.81400000  25.58300000
 C  56.64100000  41.06100000  25.15900000
 N  55.68900000  40.30600000  24.70600000
 H  54.80400000  40.73400000  24.46900000
 H  55.63900000  39.40000000  25.15600000
 N  57.68300000  40.46500000  25.64000000
 H  58.43300000  41.02300000  26.02000000
 H  57.74900000  39.45500000  25.59600000
 C  53.02700000  43.88300000  28.52200000
 O  52.89800000  44.87100000  29.24100000
 N  52.79600000  42.65000000  28.96800000
 H  53.10500000  41.87600000  28.38700000
 C  52.15200000  42.33400000  30.24600000
 H  52.04200000  43.25300000  30.81700000
 C  50.73900000  41.81100000  29.96900000
 H  50.20500000  41.67200000  30.91000000
 H  50.78600000  40.85700000  29.44200000
 H  50.19500000  42.53200000  29.36000000
 H  52.73200000  41.64100000  30.85600000
 H  45.38500000  38.47800000  40.46600000
 C  46.43500000  38.56100000  40.18700000
 H  47.02400000  38.05500000  40.94600000
 C  46.70500000  37.79900000  38.88400000
 H  46.37600000  36.76900000  39.01900000
 H  47.78000000  37.78800000  38.71000000
 C  46.02000000  38.36400000  37.63500000
 H  46.42300000  39.34700000  37.39400000
 H  44.95300000  38.46300000  37.83400000
 S  46.25000000  37.27400000  36.20900000
 C  44.77200000  37.64800000  35.23300000
 H  43.88600000  37.60100000  35.86400000
 H  44.86100000  38.64100000  34.79100000
 H  44.67200000  36.90700000  34.44100000
 H  46.78000000  39.59300000  40.13000000
 H  49.62100000  42.62100000  38.07500000
 C  50.21300000  42.68500000  37.16200000
 H  51.21500000  42.30800000  37.36500000
 C  49.59300000  41.77200000  36.08400000
 H  50.31300000  41.62800000  35.28400000
 H  49.42000000  40.78700000  36.51500000
 C  48.30100000  42.24200000  35.45000000
 C  48.28500000  42.67300000  34.10800000
 H  49.20200000  42.72000000  33.53700000
 C  47.06600000  43.00200000  33.48900000
 H  47.03200000  43.30400000  32.45100000
 C  45.87200000  42.93800000  34.22000000
 H  44.93700000  43.21600000  33.75600000
 C  45.89400000  42.53500000  35.56400000
 H  44.97700000  42.51900000  36.12100000
 C  47.10000000  42.17000000  36.17600000
 H  47.09900000  41.83700000  37.20200000
 C  50.40400000  44.13000000  36.69900000
 O  49.79900000  45.06800000  37.23300000
 N  51.27500000  44.29100000  35.70600000
 H  51.76500000  43.46100000  35.37600000
 C  51.54000000  45.54200000  34.99800000
 H  50.79100000  46.28200000  35.28000000
 C  52.92200000  46.07000000  35.41200000
 H  52.87700000  46.35500000  36.46400000
 H  53.65800000  45.27100000  35.30400000
 C  53.38800000  47.27200000  34.57400000
 H  53.56400000  46.94500000  33.55000000
 H  52.61900000  48.04700000  34.56700000
 C  54.69400000  47.85400000  35.11600000
 H  55.12100000  48.50400000  34.35000000
 H  55.40200000  47.04700000  35.31400000
 N  54.45500000  48.63300000  36.34000000
 H  53.56500000  48.51200000  36.82300000
 C  55.24000000  49.54900000  36.86300000
 N  56.44300000  49.78400000  36.42500000
 H  56.83100000  49.20500000  35.69000000
 H  57.01600000  50.49500000  36.87000000
 N  54.80600000  50.24100000  37.86800000
 H  53.85600000  50.07400000  38.19300000
 H  55.35200000  50.98200000  38.26300000
 C  51.42200000  45.31800000  33.49600000
 O  51.93100000  44.32400000  32.97300000
 N  50.80200000  46.27500000  32.81400000
 H  50.41500000  47.05400000  33.34000000
 C  50.84000000  46.41700000  31.35400000
 H  51.35500000  45.55600000  30.93900000
 C  49.43200000  46.42300000  30.72600000
 H  49.54200000  46.49400000  29.64300000
 C  48.70800000  45.11300000  31.04100000
 H  48.51500000  45.04600000  32.11100000
 H  49.31400000  44.26600000  30.72700000
 H  47.75400000  45.08100000  30.51600000
 C  48.55200000  47.58300000  31.19500000
 H  48.42700000  47.55800000  32.27700000
 H  47.57000000  47.51100000  30.72900000
 H  49.00600000  48.52600000  30.90000000
 C  51.66300000  47.65000000  30.97800000
 O  51.70600000  48.62800000  31.72100000
 N  52.35400000  47.59600000  29.84600000
 H  52.33700000  46.73100000  29.31700000
 C  53.23600000  48.65700000  29.34700000
 H  53.03000000  49.58300000  29.88200000
 C  54.71000000  48.29300000  29.58000000
 H  55.32400000  49.12200000  29.22500000
 H  54.96200000  47.40300000  29.00100000
 C  55.03300000  48.03900000  31.06000000
 H  54.59000000  47.09100000  31.37300000
 H  54.60000000  48.83900000  31.66200000
 C  56.54100000  47.98600000  31.30100000
 O  57.26000000  47.25900000  30.57900000
 O  57.04100000  48.68300000  32.21500000
 C  52.96600000  48.91000000  27.86300000
 O  52.82600000  47.95600000  27.09600000
 N  52.85500000  50.18400000  27.47200000
 H  53.08800000  50.91100000  28.14300000
 C  52.40100000  50.61800000  26.14300000
 H  52.94400000  50.04300000  25.39100000
 C  50.89500000  50.28800000  25.98000000
 H  50.75800000  49.21000000  26.05100000
 H  50.59000000  50.56100000  24.97000000
 C  49.92900000  50.95700000  26.97100000
 H  50.27400000  51.96000000  27.21200000
 H  48.96600000  51.05700000  26.47100000
 S  49.63200000  50.01900000  28.49700000
 C  50.31100000  51.13200000  29.75200000
 H  51.35100000  51.35500000  29.52500000
 H  49.73400000  52.05700000  29.77500000
 H  50.25300000  50.65100000  30.72700000
 C  52.73800000  52.10900000  25.90100000
 O  53.74600000  52.61000000  26.40400000
 N  51.92900000  52.82300000  25.10400000
 H  51.10500000  52.37100000  24.73700000
 C  52.11300000  54.24500000  24.76300000
 H  52.88900000  54.65900000  25.40600000
 C  52.58600000  54.40700000  23.30000000
 H  51.81000000  54.02100000  22.63800000
 C  52.84800000  55.87200000  22.92700000
 H  53.66500000  56.26200000  23.52800000
 H  53.13100000  55.94000000  21.87700000
 H  51.95500000  56.47600000  23.07700000
 C  53.88500000  53.63500000  23.02000000
 H  54.66400000  53.95800000  23.71000000
 H  53.71800000  52.56500000  23.14100000
 H  54.20700000  53.81400000  21.99300000
 C  50.82300000  55.03700000  25.02400000
 O  49.75100000  54.66200000  24.54400000
 N  50.93600000  56.15900000  25.73700000
 H  51.87000000  56.41000000  26.05300000
 C  49.86300000  57.09000000  26.11900000
 H  48.94200000  56.84600000  25.58800000
 C  49.61000000  56.97400000  27.63000000
 H  49.04400000  56.06200000  27.82500000
 H  50.57400000  56.88700000  28.13200000
 C  48.89800000  58.13200000  28.26000000
 C  49.49000000  59.09400000  29.00400000
 H  50.54800000  59.12300000  29.24000000
 N  48.55300000  60.03600000  29.38100000
 H  48.77200000  60.84600000  29.94400000
 C  47.30700000  59.74200000  28.86800000
 C  46.07000000  60.39900000  28.92500000
 H  45.97100000  61.33400000  29.45800000
 C  44.96900000  59.83400000  28.25900000
 H  44.01100000  60.33400000  28.26700000
 C  45.11900000  58.62100000  27.56200000
 H  44.27200000  58.18800000  27.05000000
 C  46.36700000  57.97400000  27.50600000
 H  46.47100000  57.05400000  26.94900000
 C  47.49400000  58.51800000  28.15600000
 H  50.14400000  58.11300000  25.86800000
 H  54.37500000  54.48600000  28.88100000
 C  53.83400000  54.41600000  29.82500000
 H  54.38900000  54.97400000  30.57900000
 C  52.46100000  55.08800000  29.65800000
 H  51.96400000  55.13600000  30.62800000
 H  52.60100000  56.10500000  29.28700000
 S  51.41800000  54.15200000  28.50600000
 H  50.28800000  54.83300000  28.72500000
 H  53.74100000  53.39800000  30.20200000
 H  50.67900000  50.77600000  33.60900000
 C  49.75500000  50.76700000  34.18700000
 H  49.73700000  51.63800000  34.84000000
 C  48.56600000  50.86600000  33.21400000
 H  48.67400000  50.07400000  32.47900000
 H  48.61500000  51.81900000  32.68600000
 C  47.18000000  50.72000000  33.86500000
 H  47.15900000  49.82800000  34.48500000
 C  46.83400000  51.92500000  34.73600000
 H  47.55600000  52.00600000  35.54300000
 H  46.84300000  52.83800000  34.14200000
 H  45.84800000  51.78400000  35.17400000
 C  46.11900000  50.57000000  32.77900000
 H  46.34700000  49.70300000  32.15800000
 H  46.07800000  51.46500000  32.16100000
 H  45.14700000  50.40000000  33.23900000
 H  49.72900000  49.87500000  34.81300000
 H  47.27200000  46.82400000  37.27100000
 C  46.25300000  46.43800000  37.25300000
 H  45.57000000  47.20800000  37.61300000
 C  45.82700000  46.09800000  35.80100000
 H  46.43600000  45.26400000  35.46000000
 C  44.34400000  45.70900000  35.69000000
 H  44.07400000  45.57300000  34.64100000
 H  44.14800000  44.76600000  36.19300000
 H  43.71700000  46.48900000  36.11700000
 C  46.06300000  47.25800000  34.82500000
 H  45.69800000  46.99100000  33.83100000
 H  47.12800000  47.46600000  34.73800000
 H  45.54000000  48.15000000  35.16500000
 C  46.11400000  45.22200000  38.18300000
 O  47.10200000  44.53700000  38.46400000
 N  44.90800000  44.96200000  38.70100000
 H  44.15100000  45.60700000  38.48700000
 C  44.54900000  43.70100000  39.37100000
 H  45.35800000  42.99300000  39.21700000
 C  44.36600000  43.87000000  40.90200000
 H  43.75700000  44.75700000  41.08000000
 C  43.65500000  42.65400000  41.53600000
 H  43.59600000  42.76100000  42.61700000
 H  42.63100000  42.57600000  41.17000000
 H  44.19300000  41.73600000  41.29800000
 C  45.73600000  44.05600000  41.58600000
 H  46.32600000  44.76300000  41.01100000
 H  46.26500000  43.10400000  41.59500000
 C  45.66600000  44.59000000  43.01900000
 H  45.09300000  45.51600000  43.04300000
 H  46.67900000  44.79000000  43.35900000
 H  45.21400000  43.85900000  43.68800000
 C  43.30800000  43.11500000  38.70000000
 O  42.22800000  43.69500000  38.78000000
 N  43.45000000  41.94700000  38.07500000
 H  44.35500000  41.49700000  38.10700000
 C  42.31700000  41.20100000  37.52200000
 H  41.51000000  41.89100000  37.27600000
 C  42.69800000  40.45600000  36.23800000
 H  43.64900000  39.94900000  36.38600000
 H  41.94100000  39.70200000  36.02300000
 C  42.80400000  41.34600000  35.01000000
 O  42.61900000  42.55500000  35.00500000
 O  43.14900000  40.65500000  33.90600000
 H  43.25300000  41.28400000  33.14500000
 H  41.94700000  40.48700000  38.25800000
 H  38.82700000  36.76500000  38.44300000
 C  38.33100000  36.07100000  37.76400000
 H  37.62700000  36.60900000  37.13200000
 C  39.37200000  35.39500000  36.85100000
 H  38.89700000  34.57200000  36.31500000
 H  40.17000000  34.97800000  37.46800000
 C  39.98000000  36.34400000  35.81500000
 H  40.36500000  37.23100000  36.31900000
 H  39.19100000  36.64600000  35.12600000
 S  41.33200000  35.60200000  34.85900000
 C  41.64100000  36.91100000  33.64100000
 H  41.86000000  37.85300000  34.14500000
 H  42.49300000  36.63300000  33.02200000
 H  40.76900000  37.03300000  32.99900000
 H  37.77500000  35.30200000  38.30000000
 H  35.57600000  38.52700000  34.71400000
 C  36.50000000  39.05300000  34.95300000
 H  36.93500000  38.55600000  35.81500000
 C  37.51800000  38.93100000  33.80500000
 H  37.55100000  37.88600000  33.50200000
 H  37.19800000  39.52900000  32.95400000
 C  38.94700000  39.32600000  34.20900000
 H  39.13400000  38.96100000  35.21800000
 H  39.63400000  38.80900000  33.54200000
 S  39.38600000  41.08300000  34.15900000
 C  39.95100000  41.25600000  32.44300000
 H  39.14800000  40.98900000  31.75800000
 H  40.80600000  40.60200000  32.27100000
 H  40.25400000  42.28800000  32.25900000
 C  36.23900000  40.51200000  35.35200000
 O  35.32400000  41.15400000  34.83000000
 N  37.02600000  41.03100000  36.29500000
 H  37.72100000  40.42100000  36.70900000
 C  36.95000000  42.39700000  36.82000000
 H  36.35500000  43.01700000  36.15000000
 C  36.27000000  42.37100000  38.20300000
 H  36.86700000  41.76700000  38.88400000
 H  36.22100000  43.38800000  38.59400000
 C  34.85300000  41.78700000  38.14000000
 H  34.26800000  42.39700000  37.45800000
 H  34.87900000  40.77000000  37.75300000
 C  34.14900000  41.72000000  39.48500000
 O  34.68800000  41.29400000  40.50200000
 N  32.88900000  42.07100000  39.52700000
 H  32.42100000  42.35300000  38.66300000
 H  32.37500000  41.96300000  40.38100000
 C  38.35900000  42.99900000  36.90600000
 O  39.17100000  42.53600000  37.71100000
 N  38.65300000  44.00500000  36.07700000
 H  37.93100000  44.34200000  35.44600000
 C  39.96300000  44.65200000  35.99200000
 H  40.73200000  43.97100000  36.36100000
 C  40.27600000  44.93300000  34.52000000
 H  41.26400000  45.38600000  34.42900000
 H  39.53600000  45.61400000  34.10500000
 H  40.26900000  44.00500000  33.95000000
 C  39.99800000  45.92500000  36.85300000
 O  39.55700000  47.00000000  36.44200000
 N  40.50600000  45.81800000  38.07800000
 H  40.90200000  44.92600000  38.35600000
 C  40.66700000  46.95400000  38.98400000
 H  39.77000000  47.57200000  38.93800000
 C  40.81400000  46.45500000  40.43100000
 H  41.11300000  47.29400000  41.06000000
 H  41.60900000  45.71000000  40.48200000
 C  39.53400000  45.86300000  40.99300000
 C  39.17100000  44.53300000  40.70000000
 H  39.82700000  43.91100000  40.10300000
 C  37.92900000  44.02800000  41.13000000
 H  37.62700000  43.02500000  40.87000000
 C  37.04800000  44.85400000  41.85700000
 O  35.80500000  44.41000000  42.18000000
 H  35.14400000  45.07700000  41.95300000
 C  37.43300000  46.16800000  42.19600000
 H  36.76000000  46.78800000  42.76400000
 C  38.67100000  46.67400000  41.75700000
 H  38.94600000  47.69500000  41.97600000
 C  41.86000000  47.81300000  38.54300000
 O  43.00900000  47.38200000  38.65900000
 N  41.56900000  49.02700000  38.06100000
 H  40.58800000  49.23700000  37.92800000
 C  42.51800000  50.11200000  37.76300000
 H  43.17600000  50.24700000  38.62400000
 C  43.39500000  49.75000000  36.54900000
 H  44.20300000  50.48000000  36.49100000
 H  43.87500000  48.79000000  36.72500000
 C  42.72200000  49.71200000  35.20600000
 C  42.07000000  48.65000000  34.68200000
 H  41.94800000  47.68800000  35.16100000
 N  41.58000000  48.96800000  33.43200000
 H  41.03800000  48.31000000  32.85300000
 C  41.87700000  50.26500000  33.08500000
 C  41.59700000  51.04000000  31.95000000
 H  41.05900000  50.60000000  31.12200000
 C  42.03300000  52.37500000  31.90600000
 H  41.82500000  52.98200000  31.03700000