# 1oh0_19nt_mm_minimized_distance_cutoff3_no_wat_xtb
%maxcore 2000
%pal nprocs 32 end
! XTB2 opt
%geom Constraints
 { C 47 C }
 { C 66 C }
 { C 80 C }
 { C 90 C }
 { C 97 C }
 { C 114 C }
 { C 128 C }
 { C 146 C }
 { C 160 C }
 { C 175 C }
 { C 192 C }
 { C 206 C }
 { C 217 C }
 { C 225 C }
 end
end
* xyz -1 1
 C  44.00100000  42.84500000  31.33500000
 O  43.72300000  41.87900000  31.98000000
 C  43.79100000  44.20800000  31.86900000
 C  43.99400000  45.31200000  31.15600000
 C  44.56500000  45.26200000  29.74500000
 C  45.40500000  43.99000000  29.59700000
 C  44.57300000  42.75700000  29.93600000
 C  43.29900000  46.59300000  31.55000000
 C  44.06500000  47.83900000  31.10500000
 C  44.42100000  47.78200000  29.62000000
 C  45.34500000  46.55800000  29.38600000
 C  45.09000000  49.06000000  29.11100000
 C  45.57100000  49.00000000  27.64400000
 C  46.58400000  47.86300000  27.51000000
 C  45.97800000  46.52600000  27.97700000
 C  44.32900000  50.39500000  29.19800000
 C  45.06000000  51.31000000  28.18300000
 C  46.14200000  50.42300000  27.52600000
 C  44.44000000  48.80900000  26.61600000
 O  46.43800000  50.78500000  26.20300000
 H  43.45200000  44.31200000  32.89900000
 H  43.75100000  45.21900000  29.02100000
 H  46.25000000  44.04400000  30.28400000
 H  45.76000000  43.91200000  28.56900000
 H  43.74500000  42.69800000  29.23100000
 H  45.20500000  41.87200000  29.86600000
 H  43.23900000  46.61400000  32.63800000
 H  42.31000000  46.60900000  31.09300000
 H  44.99200000  47.88900000  31.67500000
 H  43.44700000  48.71800000  31.28700000
 H  43.49400000  47.68600000  29.05400000
 H  46.20500000  46.64000000  30.05100000
 H  45.89900000  49.06800000  29.84100000
 H  47.44600000  48.09100000  28.13700000
 H  46.88500000  47.77300000  26.46600000
 H  45.16900000  46.29800000  27.28300000
 H  46.76900000  45.77600000  27.97700000
 H  44.32300000  50.80800000  30.20600000
 H  43.28400000  50.26500000  28.92000000
 H  45.49600000  52.18300000  28.66800000
 H  44.36300000  51.68000000  27.43100000
 H  47.10700000  50.52800000  28.02100000
 H  43.48100000  49.02300000  27.08800000
 H  44.59100000  49.48900000  25.77800000
 H  44.44500000  47.78000000  26.25600000
 H  47.20800000  50.29700000  25.90200000
 H  46.89400000  33.74900000  31.03900000
 C  46.35400000  34.58800000  30.60100000
 H  45.95400000  34.28400000  29.63300000
 C  45.17100000  34.94700000  31.51400000
 H  44.42100000  34.15700000  31.44900000
 H  45.51300000  34.98000000  32.54800000
 C  44.52300000  36.28000000  31.19800000
 C  43.46200000  36.35800000  30.27700000
 H  43.09700000  35.46300000  29.79200000
 C  42.88100000  37.60800000  29.98600000
 H  42.07200000  37.68800000  29.28000000
 C  43.35900000  38.77700000  30.61500000
 O  42.78900000  39.97300000  30.32800000
 H  43.14600000  40.70100000  30.89600000
 C  44.42400000  38.69700000  31.53400000
 H  44.79300000  39.59600000  32.00700000
 C  45.00300000  37.44900000  31.82100000
 H  45.82600000  37.39200000  32.51900000
 H  47.00100000  35.44600000  30.42000000
 H  48.12800000  38.16600000  26.69800000
 C  48.06300000  39.25100000  26.62000000
 H  47.33300000  39.51000000  25.85600000
 C  47.58400000  39.84700000  27.96100000
 H  48.21800000  39.46900000  28.76300000
 C  47.63900000  41.37800000  27.99600000
 H  48.65000000  41.73500000  27.81100000
 H  46.97500000  41.78600000  27.23900000
 H  47.33100000  41.73400000  28.97900000
 C  46.13300000  39.44100000  28.25300000
 H  45.85000000  39.78700000  29.24500000
 H  46.02100000  38.35800000  28.23200000
 H  45.45900000  39.87700000  27.51500000
 H  49.01400000  39.68200000  26.30700000
 H  36.19600000  46.23300000  32.61700000
 C  37.16400000  46.71200000  32.46500000
 H  37.70200000  46.70800000  33.40800000
 C  38.01200000  45.86600000  31.50100000
 H  37.47600000  45.75600000  30.55600000
 H  38.15200000  44.87200000  31.92900000
 C  39.39000000  46.48300000  31.23300000
 O  39.86900000  47.28100000  32.06900000
 O  39.96500000  46.17500000  30.17000000
 H  37.07300000  47.73700000  32.10600000
 H  42.29700000  46.94100000  22.75700000
 C  43.01900000  47.11500000  23.55500000
 H  42.74400000  46.51200000  24.42200000
 H  42.98900000  48.16500000  23.84600000
 C  44.45300000  46.75400000  23.15700000
 O  45.34300000  47.60700000  23.16800000
 N  44.66800000  45.50100000  22.74700000
 H  43.86700000  44.87800000  22.70800000
 C  45.98300000  44.91200000  22.45500000
 H  46.72500000  45.39800000  23.08700000
 C  45.95800000  43.41000000  22.81700000
 H  45.33800000  42.89100000  22.08500000
 H  46.97300000  43.01800000  22.73000000
 C  45.42500000  43.06600000  24.22200000
 H  44.37900000  43.36100000  24.30000000
 C  45.51200000  41.55800000  24.45300000
 H  45.10400000  41.31700000  25.43500000
 H  44.92700000  41.03600000  23.69700000
 H  46.55000000  41.22900000  24.40100000
 C  46.21900000  43.76500000  25.32200000
 H  47.26600000  43.46000000  25.28700000
 H  46.14300000  44.84500000  25.20900000
 H  45.79000000  43.50600000  26.28900000
 H  46.32000000  45.05100000  21.42800000
 H  51.57700000  46.37300000  23.70800000
 C  51.26000000  46.16900000  24.73100000
 H  51.50000000  47.03600000  25.34200000
 C  49.74000000  45.93600000  24.83500000
 H  49.47000000  45.04400000  24.27200000
 C  49.31800000  45.72500000  26.29400000
 H  49.78600000  44.83100000  26.70500000
 H  49.59100000  46.59300000  26.89600000
 H  48.24100000  45.58400000  26.33800000
 C  48.93600000  47.11500000  24.26800000
 H  49.18600000  48.03200000  24.79900000
 H  49.14400000  47.24200000  23.20600000
 H  47.87000000  46.92500000  24.38500000
 H  51.81000000  45.30900000  25.11300000
 H  49.62100000  42.62100000  38.07500000
 C  50.21300000  42.68500000  37.16200000
 H  51.21500000  42.30800000  37.36500000
 C  49.59300000  41.77200000  36.08400000
 H  50.31300000  41.62800000  35.28400000
 H  49.42000000  40.78700000  36.51500000
 C  48.30100000  42.24200000  35.45000000
 C  48.28500000  42.67300000  34.10800000
 H  49.20200000  42.72000000  33.53700000
 C  47.06600000  43.00200000  33.48900000
 H  47.03200000  43.30400000  32.45100000
 C  45.87200000  42.93800000  34.22000000
 H  44.93700000  43.21600000  33.75600000
 C  45.89400000  42.53500000  35.56400000
 H  44.97700000  42.51900000  36.12100000
 C  47.10000000  42.17000000  36.17600000
 H  47.09900000  41.83700000  37.20200000
 H  50.34900000  43.71500000  36.83200000
 H  50.81200000  46.31200000  32.43900000
 C  50.84000000  46.41700000  31.35400000
 H  51.35500000  45.55600000  30.93900000
 C  49.43200000  46.42300000  30.72600000
 H  49.54200000  46.49400000  29.64300000
 C  48.70800000  45.11300000  31.04100000
 H  48.51500000  45.04600000  32.11100000
 H  49.31400000  44.26600000  30.72700000
 H  47.75400000  45.08100000  30.51600000
 C  48.55200000  47.58300000  31.19500000
 H  48.42700000  47.55800000  32.27700000
 H  47.57000000  47.51100000  30.72900000
 H  49.00600000  48.52600000  30.90000000
 H  51.42700000  47.29600000  31.08600000
 H  52.73800000  50.29600000  27.12800000
 C  52.40100000  50.61800000  26.14300000
 H  52.94400000  50.04300000  25.39100000
 C  50.89500000  50.28800000  25.98000000
 H  50.75800000  49.21000000  26.05100000
 H  50.59000000  50.56100000  24.97000000
 C  49.92900000  50.95700000  26.97100000
 H  50.27400000  51.96000000  27.21200000
 H  48.96600000  51.05700000  26.47100000
 S  49.63200000  50.01900000  28.49700000
 C  50.31100000  51.13200000  29.75200000
 H  51.35100000  51.35500000  29.52500000
 H  49.73400000  52.05700000  29.77500000
 H  50.25300000  50.65100000  30.72700000
 H  52.63800000  51.66800000  25.97300000
 H  50.67900000  50.77600000  33.60900000
 C  49.75500000  50.76700000  34.18700000
 H  49.73700000  51.63800000  34.84000000
 C  48.56600000  50.86600000  33.21400000
 H  48.67400000  50.07400000  32.47900000
 H  48.61500000  51.81900000  32.68600000
 C  47.18000000  50.72000000  33.86500000
 H  47.15900000  49.82800000  34.48500000
 C  46.83400000  51.92500000  34.73600000
 H  47.55600000  52.00600000  35.54300000
 H  46.84300000  52.83800000  34.14200000
 H  45.84800000  51.78400000  35.17400000
 C  46.11900000  50.57000000  32.77900000
 H  46.34700000  49.70300000  32.15800000
 H  46.07800000  51.46500000  32.16100000
 H  45.14700000  50.40000000  33.23900000
 H  49.72900000  49.87500000  34.81300000
 H  47.27200000  46.82400000  37.27100000
 C  46.25300000  46.43800000  37.25300000
 H  45.57000000  47.20800000  37.61300000
 C  45.82700000  46.09800000  35.80100000
 H  46.43600000  45.26400000  35.46000000
 C  44.34400000  45.70900000  35.69000000
 H  44.07400000  45.57300000  34.64100000
 H  44.14800000  44.76600000  36.19300000
 H  43.71700000  46.48900000  36.11700000
 C  46.06300000  47.25800000  34.82500000
 H  45.69800000  46.99100000  33.83100000
 H  47.12800000  47.46600000  34.73800000
 H  45.54000000  48.15000000  35.16500000
 H  46.15400000  45.57600000  37.91200000
 H  43.16000000  41.75600000  37.93300000
 C  42.31700000  41.20100000  37.52200000
 H  41.51000000  41.89100000  37.27600000
 C  42.69800000  40.45600000  36.23800000
 H  43.64900000  39.94900000  36.38600000
 H  41.94100000  39.70200000  36.02300000
 C  42.80400000  41.34600000  35.01000000
 O  42.61900000  42.55500000  35.00500000
 O  43.14900000  40.65500000  33.90600000
 H  43.25300000  41.28400000  33.14500000
 H  41.94700000  40.48700000  38.25800000
 H  38.98700000  44.17000000  36.05500000
 C  39.96300000  44.65200000  35.99200000
 H  40.73200000  43.97100000  36.36100000
 C  40.27600000  44.93300000  34.52000000
 H  41.26400000  45.38600000  34.42900000
 H  39.53600000  45.61400000  34.10500000
 H  40.26900000  44.00500000  33.95000000
 H  39.98800000  45.55500000  36.60300000
 H  41.81500000  49.30900000  37.98400000
 C  42.51800000  50.11200000  37.76300000
 H  43.17600000  50.24700000  38.62400000
 C  43.39500000  49.75000000  36.54900000
 H  44.20300000  50.48000000  36.49100000
 H  43.87500000  48.79000000  36.72500000
 C  42.72200000  49.71200000  35.20600000
 C  42.07000000  48.65000000  34.68200000
 H  41.94800000  47.68800000  35.16100000
 N  41.58000000  48.96800000  33.43200000
 H  41.03800000  48.31000000  32.85300000
 C  41.87700000  50.26500000  33.08500000
 C  41.59700000  51.04000000  31.95000000
 H  41.05900000  50.60000000  31.12200000
 C  42.03300000  52.37500000  31.90600000
 H  41.82500000  52.98200000  31.03700000
 C  42.75500000  52.90900000  32.98800000
 H  43.11000000  53.92900000  32.94300000
 C  43.04300000  52.11500000  34.11700000
 H  43.63400000  52.52000000  34.92100000
 C  42.59800000  50.77600000  34.20500000
 H  42.01000000  51.05700000  37.57200000
*